250
30
66	80
164	107
64	184
121	86
163	135
85	98
81	102
103	186
152	106
176	139
111	118
69	169
146	133
112	112
133	160
63	129
163	152
110	155
96	136
92	142
84	143
119	133
71	71
146	84
93	86
89	86
101	146
172	73
73	169
99	99
